p cnf 432 1551
c Polynomial has 25 variables and 407 monomials
c Original variables from 1 to 25
c Monomials variables from 26 to 432
c p weight 1 0 0
c p weight -1 0 0
c p weight 2 0 0
c p weight -2 0 0
c p weight 3 0 0
c p weight -3 0 0
c p weight 4 0 0
c p weight -4 0 0
c p weight 5 0 0
c p weight -5 0 0
c p weight 6 0 0
c p weight -6 0 0
c p weight 7 0 0
c p weight -7 0 0
c p weight 8 0 0
c p weight -8 0 0
c p weight 9 0 0
c p weight -9 0 0
c p weight 10 0 0
c p weight -10 0 0
c p weight 11 0 0
c p weight -11 0 0
c p weight 12 0 0
c p weight -12 0 0
c p weight 13 0 0
c p weight -13 0 0
c p weight 14 0 0
c p weight -14 0 0
c p weight 15 0 0
c p weight -15 0 0
c p weight 16 0 0
c p weight -16 0 0
c p weight 17 0 0
c p weight -17 0 0
c p weight 18 0 0
c p weight -18 0 0
c p weight 19 0 0
c p weight -19 0 0
c p weight 20 0 0
c p weight -20 0 0
c p weight 21 0 0
c p weight -21 0 0
c p weight 22 0 0
c p weight -22 0 0
c p weight 23 0 0
c p weight -23 0 0
c p weight 24 0 0
c p weight -24 0 0
c p weight 25 0 0
c p weight -25 0 0
c p weight 26 64 0
c p weight -26 0 0
26 -1 -2 -3 -4 0
-26 1 0
-26 2 0
-26 3 0
-26 4 0
c p weight 27 64 0
c p weight -27 0 0
27 -1 -2 -4 -5 0
-27 1 0
-27 2 0
-27 4 0
-27 5 0
c p weight 28 64 0
c p weight -28 0 0
28 -1 -2 -5 -6 0
-28 1 0
-28 2 0
-28 5 0
-28 6 0
c p weight 29 64 0
c p weight -29 0 0
29 -1 -3 -4 -6 0
-29 1 0
-29 3 0
-29 4 0
-29 6 0
c p weight 30 128 0
c p weight -30 0 0
30 -2 -3 -4 -5 0
-30 2 0
-30 3 0
-30 4 0
-30 5 0
c p weight 31 128 0
c p weight -31 0 0
31 -2 -3 -5 -6 0
-31 2 0
-31 3 0
-31 5 0
-31 6 0
c p weight 32 64 0
c p weight -32 0 0
32 -2 -3 -6 -7 0
-32 2 0
-32 3 0
-32 6 0
-32 7 0
c p weight 33 64 0
c p weight -33 0 0
33 -2 -4 -5 -7 0
-33 2 0
-33 4 0
-33 5 0
-33 7 0
c p weight 34 192 0
c p weight -34 0 0
34 -3 -4 -5 -6 0
-34 3 0
-34 4 0
-34 5 0
-34 6 0
c p weight 35 128 0
c p weight -35 0 0
35 -3 -4 -6 -7 0
-35 3 0
-35 4 0
-35 6 0
-35 7 0
c p weight 36 64 0
c p weight -36 0 0
36 -3 -4 -7 -8 0
-36 3 0
-36 4 0
-36 7 0
-36 8 0
c p weight 37 64 0
c p weight -37 0 0
37 -3 -5 -6 -8 0
-37 3 0
-37 5 0
-37 6 0
-37 8 0
c p weight 38 192 0
c p weight -38 0 0
38 -4 -5 -6 -7 0
-38 4 0
-38 5 0
-38 6 0
-38 7 0
c p weight 39 128 0
c p weight -39 0 0
39 -4 -5 -7 -8 0
-39 4 0
-39 5 0
-39 7 0
-39 8 0
c p weight 40 64 0
c p weight -40 0 0
40 -4 -5 -8 -9 0
-40 4 0
-40 5 0
-40 8 0
-40 9 0
c p weight 41 64 0
c p weight -41 0 0
41 -4 -6 -7 -9 0
-41 4 0
-41 6 0
-41 7 0
-41 9 0
c p weight 42 192 0
c p weight -42 0 0
42 -5 -6 -7 -8 0
-42 5 0
-42 6 0
-42 7 0
-42 8 0
c p weight 43 128 0
c p weight -43 0 0
43 -5 -6 -8 -9 0
-43 5 0
-43 6 0
-43 8 0
-43 9 0
c p weight 44 64 0
c p weight -44 0 0
44 -5 -6 -9 -10 0
-44 5 0
-44 6 0
-44 9 0
-44 10 0
c p weight 45 64 0
c p weight -45 0 0
45 -5 -7 -8 -10 0
-45 5 0
-45 7 0
-45 8 0
-45 10 0
c p weight 46 192 0
c p weight -46 0 0
46 -6 -7 -8 -9 0
-46 6 0
-46 7 0
-46 8 0
-46 9 0
c p weight 47 128 0
c p weight -47 0 0
47 -6 -7 -9 -10 0
-47 6 0
-47 7 0
-47 9 0
-47 10 0
c p weight 48 64 0
c p weight -48 0 0
48 -6 -7 -10 -11 0
-48 6 0
-48 7 0
-48 10 0
-48 11 0
c p weight 49 64 0
c p weight -49 0 0
49 -6 -8 -9 -11 0
-49 6 0
-49 8 0
-49 9 0
-49 11 0
c p weight 50 192 0
c p weight -50 0 0
50 -7 -8 -9 -10 0
-50 7 0
-50 8 0
-50 9 0
-50 10 0
c p weight 51 128 0
c p weight -51 0 0
51 -7 -8 -10 -11 0
-51 7 0
-51 8 0
-51 10 0
-51 11 0
c p weight 52 64 0
c p weight -52 0 0
52 -7 -8 -11 -12 0
-52 7 0
-52 8 0
-52 11 0
-52 12 0
c p weight 53 64 0
c p weight -53 0 0
53 -7 -9 -10 -12 0
-53 7 0
-53 9 0
-53 10 0
-53 12 0
c p weight 54 192 0
c p weight -54 0 0
54 -8 -9 -10 -11 0
-54 8 0
-54 9 0
-54 10 0
-54 11 0
c p weight 55 128 0
c p weight -55 0 0
55 -8 -9 -11 -12 0
-55 8 0
-55 9 0
-55 11 0
-55 12 0
c p weight 56 64 0
c p weight -56 0 0
56 -8 -9 -12 -13 0
-56 8 0
-56 9 0
-56 12 0
-56 13 0
c p weight 57 64 0
c p weight -57 0 0
57 -8 -10 -11 -13 0
-57 8 0
-57 10 0
-57 11 0
-57 13 0
c p weight 58 192 0
c p weight -58 0 0
58 -9 -10 -11 -12 0
-58 9 0
-58 10 0
-58 11 0
-58 12 0
c p weight 59 128 0
c p weight -59 0 0
59 -9 -10 -12 -13 0
-59 9 0
-59 10 0
-59 12 0
-59 13 0
c p weight 60 64 0
c p weight -60 0 0
60 -9 -10 -13 -14 0
-60 9 0
-60 10 0
-60 13 0
-60 14 0
c p weight 61 64 0
c p weight -61 0 0
61 -9 -11 -12 -14 0
-61 9 0
-61 11 0
-61 12 0
-61 14 0
c p weight 62 192 0
c p weight -62 0 0
62 -10 -11 -12 -13 0
-62 10 0
-62 11 0
-62 12 0
-62 13 0
c p weight 63 128 0
c p weight -63 0 0
63 -10 -11 -13 -14 0
-63 10 0
-63 11 0
-63 13 0
-63 14 0
c p weight 64 64 0
c p weight -64 0 0
64 -10 -11 -14 -15 0
-64 10 0
-64 11 0
-64 14 0
-64 15 0
c p weight 65 64 0
c p weight -65 0 0
65 -10 -12 -13 -15 0
-65 10 0
-65 12 0
-65 13 0
-65 15 0
c p weight 66 192 0
c p weight -66 0 0
66 -11 -12 -13 -14 0
-66 11 0
-66 12 0
-66 13 0
-66 14 0
c p weight 67 128 0
c p weight -67 0 0
67 -11 -12 -14 -15 0
-67 11 0
-67 12 0
-67 14 0
-67 15 0
c p weight 68 64 0
c p weight -68 0 0
68 -11 -12 -15 -16 0
-68 11 0
-68 12 0
-68 15 0
-68 16 0
c p weight 69 64 0
c p weight -69 0 0
69 -11 -13 -14 -16 0
-69 11 0
-69 13 0
-69 14 0
-69 16 0
c p weight 70 192 0
c p weight -70 0 0
70 -12 -13 -14 -15 0
-70 12 0
-70 13 0
-70 14 0
-70 15 0
c p weight 71 128 0
c p weight -71 0 0
71 -12 -13 -15 -16 0
-71 12 0
-71 13 0
-71 15 0
-71 16 0
c p weight 72 64 0
c p weight -72 0 0
72 -12 -13 -16 -17 0
-72 12 0
-72 13 0
-72 16 0
-72 17 0
c p weight 73 64 0
c p weight -73 0 0
73 -12 -14 -15 -17 0
-73 12 0
-73 14 0
-73 15 0
-73 17 0
c p weight 74 192 0
c p weight -74 0 0
74 -13 -14 -15 -16 0
-74 13 0
-74 14 0
-74 15 0
-74 16 0
c p weight 75 128 0
c p weight -75 0 0
75 -13 -14 -16 -17 0
-75 13 0
-75 14 0
-75 16 0
-75 17 0
c p weight 76 64 0
c p weight -76 0 0
76 -13 -14 -17 -18 0
-76 13 0
-76 14 0
-76 17 0
-76 18 0
c p weight 77 64 0
c p weight -77 0 0
77 -13 -15 -16 -18 0
-77 13 0
-77 15 0
-77 16 0
-77 18 0
c p weight 78 192 0
c p weight -78 0 0
78 -14 -15 -16 -17 0
-78 14 0
-78 15 0
-78 16 0
-78 17 0
c p weight 79 128 0
c p weight -79 0 0
79 -14 -15 -17 -18 0
-79 14 0
-79 15 0
-79 17 0
-79 18 0
c p weight 80 64 0
c p weight -80 0 0
80 -14 -15 -18 -19 0
-80 14 0
-80 15 0
-80 18 0
-80 19 0
c p weight 81 64 0
c p weight -81 0 0
81 -14 -16 -17 -19 0
-81 14 0
-81 16 0
-81 17 0
-81 19 0
c p weight 82 192 0
c p weight -82 0 0
82 -15 -16 -17 -18 0
-82 15 0
-82 16 0
-82 17 0
-82 18 0
c p weight 83 128 0
c p weight -83 0 0
83 -15 -16 -18 -19 0
-83 15 0
-83 16 0
-83 18 0
-83 19 0
c p weight 84 64 0
c p weight -84 0 0
84 -15 -16 -19 -20 0
-84 15 0
-84 16 0
-84 19 0
-84 20 0
c p weight 85 64 0
c p weight -85 0 0
85 -15 -17 -18 -20 0
-85 15 0
-85 17 0
-85 18 0
-85 20 0
c p weight 86 192 0
c p weight -86 0 0
86 -16 -17 -18 -19 0
-86 16 0
-86 17 0
-86 18 0
-86 19 0
c p weight 87 128 0
c p weight -87 0 0
87 -16 -17 -19 -20 0
-87 16 0
-87 17 0
-87 19 0
-87 20 0
c p weight 88 64 0
c p weight -88 0 0
88 -16 -17 -20 -21 0
-88 16 0
-88 17 0
-88 20 0
-88 21 0
c p weight 89 64 0
c p weight -89 0 0
89 -16 -18 -19 -21 0
-89 16 0
-89 18 0
-89 19 0
-89 21 0
c p weight 90 192 0
c p weight -90 0 0
90 -17 -18 -19 -20 0
-90 17 0
-90 18 0
-90 19 0
-90 20 0
c p weight 91 128 0
c p weight -91 0 0
91 -17 -18 -20 -21 0
-91 17 0
-91 18 0
-91 20 0
-91 21 0
c p weight 92 64 0
c p weight -92 0 0
92 -17 -18 -21 -22 0
-92 17 0
-92 18 0
-92 21 0
-92 22 0
c p weight 93 64 0
c p weight -93 0 0
93 -17 -19 -20 -22 0
-93 17 0
-93 19 0
-93 20 0
-93 22 0
c p weight 94 192 0
c p weight -94 0 0
94 -18 -19 -20 -21 0
-94 18 0
-94 19 0
-94 20 0
-94 21 0
c p weight 95 128 0
c p weight -95 0 0
95 -18 -19 -21 -22 0
-95 18 0
-95 19 0
-95 21 0
-95 22 0
c p weight 96 64 0
c p weight -96 0 0
96 -18 -19 -22 -23 0
-96 18 0
-96 19 0
-96 22 0
-96 23 0
c p weight 97 64 0
c p weight -97 0 0
97 -18 -20 -21 -23 0
-97 18 0
-97 20 0
-97 21 0
-97 23 0
c p weight 98 192 0
c p weight -98 0 0
98 -19 -20 -21 -22 0
-98 19 0
-98 20 0
-98 21 0
-98 22 0
c p weight 99 128 0
c p weight -99 0 0
99 -19 -20 -22 -23 0
-99 19 0
-99 20 0
-99 22 0
-99 23 0
c p weight 100 64 0
c p weight -100 0 0
100 -19 -20 -23 -24 0
-100 19 0
-100 20 0
-100 23 0
-100 24 0
c p weight 101 64 0
c p weight -101 0 0
101 -19 -21 -22 -24 0
-101 19 0
-101 21 0
-101 22 0
-101 24 0
c p weight 102 192 0
c p weight -102 0 0
102 -20 -21 -22 -23 0
-102 20 0
-102 21 0
-102 22 0
-102 23 0
c p weight 103 128 0
c p weight -103 0 0
103 -20 -21 -23 -24 0
-103 20 0
-103 21 0
-103 23 0
-103 24 0
c p weight 104 64 0
c p weight -104 0 0
104 -20 -21 -24 -25 0
-104 20 0
-104 21 0
-104 24 0
-104 25 0
c p weight 105 64 0
c p weight -105 0 0
105 -20 -22 -23 -25 0
-105 20 0
-105 22 0
-105 23 0
-105 25 0
c p weight 106 128 0
c p weight -106 0 0
106 -21 -22 -23 -24 0
-106 21 0
-106 22 0
-106 23 0
-106 24 0
c p weight 107 64 0
c p weight -107 0 0
107 -21 -22 -24 -25 0
-107 21 0
-107 22 0
-107 24 0
-107 25 0
c p weight 108 64 0
c p weight -108 0 0
108 -22 -23 -24 -25 0
-108 22 0
-108 23 0
-108 24 0
-108 25 0
c p weight 109 -32 0
c p weight -109 0 0
109 -1 -2 -3 0
-109 1 0
-109 2 0
-109 3 0
c p weight 110 -64 0
c p weight -110 0 0
110 -1 -2 -4 0
-110 1 0
-110 2 0
-110 4 0
c p weight 111 -64 0
c p weight -111 0 0
111 -1 -2 -5 0
-111 1 0
-111 2 0
-111 5 0
c p weight 112 -32 0
c p weight -112 0 0
112 -1 -2 -6 0
-112 1 0
-112 2 0
-112 6 0
c p weight 113 -64 0
c p weight -113 0 0
113 -1 -3 -4 0
-113 1 0
-113 3 0
-113 4 0
c p weight 114 -32 0
c p weight -114 0 0
114 -1 -3 -6 0
-114 1 0
-114 3 0
-114 6 0
c p weight 115 -32 0
c p weight -115 0 0
115 -1 -4 -5 0
-115 1 0
-115 4 0
-115 5 0
c p weight 116 -32 0
c p weight -116 0 0
116 -1 -4 -6 0
-116 1 0
-116 4 0
-116 6 0
c p weight 117 -32 0
c p weight -117 0 0
117 -1 -5 -6 0
-117 1 0
-117 5 0
-117 6 0
c p weight 118 -96 0
c p weight -118 0 0
118 -2 -3 -4 0
-118 2 0
-118 3 0
-118 4 0
c p weight 119 -128 0
c p weight -119 0 0
119 -2 -3 -5 0
-119 2 0
-119 3 0
-119 5 0
c p weight 120 -96 0
c p weight -120 0 0
120 -2 -3 -6 0
-120 2 0
-120 3 0
-120 6 0
c p weight 121 -32 0
c p weight -121 0 0
121 -2 -3 -7 0
-121 2 0
-121 3 0
-121 7 0
c p weight 122 -128 0
c p weight -122 0 0
122 -2 -4 -5 0
-122 2 0
-122 4 0
-122 5 0
c p weight 123 -32 0
c p weight -123 0 0
123 -2 -4 -7 0
-123 2 0
-123 4 0
-123 7 0
c p weight 124 -96 0
c p weight -124 0 0
124 -2 -5 -6 0
-124 2 0
-124 5 0
-124 6 0
c p weight 125 -32 0
c p weight -125 0 0
125 -2 -5 -7 0
-125 2 0
-125 5 0
-125 7 0
c p weight 126 -32 0
c p weight -126 0 0
126 -2 -6 -7 0
-126 2 0
-126 6 0
-126 7 0
c p weight 127 -160 0
c p weight -127 0 0
127 -3 -4 -5 0
-127 3 0
-127 4 0
-127 5 0
c p weight 128 -192 0
c p weight -128 0 0
128 -3 -4 -6 0
-128 3 0
-128 4 0
-128 6 0
c p weight 129 -96 0
c p weight -129 0 0
129 -3 -4 -7 0
-129 3 0
-129 4 0
-129 7 0
c p weight 130 -32 0
c p weight -130 0 0
130 -3 -4 -8 0
-130 3 0
-130 4 0
-130 8 0
c p weight 131 -192 0
c p weight -131 0 0
131 -3 -5 -6 0
-131 3 0
-131 5 0
-131 6 0
c p weight 132 -32 0
c p weight -132 0 0
132 -3 -5 -8 0
-132 3 0
-132 5 0
-132 8 0
c p weight 133 -96 0
c p weight -133 0 0
133 -3 -6 -7 0
-133 3 0
-133 6 0
-133 7 0
c p weight 134 -32 0
c p weight -134 0 0
134 -3 -6 -8 0
-134 3 0
-134 6 0
-134 8 0
c p weight 135 -32 0
c p weight -135 0 0
135 -3 -7 -8 0
-135 3 0
-135 7 0
-135 8 0
c p weight 136 -192 0
c p weight -136 0 0
136 -4 -5 -6 0
-136 4 0
-136 5 0
-136 6 0
c p weight 137 -192 0
c p weight -137 0 0
137 -4 -5 -7 0
-137 4 0
-137 5 0
-137 7 0
c p weight 138 -96 0
c p weight -138 0 0
138 -4 -5 -8 0
-138 4 0
-138 5 0
-138 8 0
c p weight 139 -32 0
c p weight -139 0 0
139 -4 -5 -9 0
-139 4 0
-139 5 0
-139 9 0
c p weight 140 -192 0
c p weight -140 0 0
140 -4 -6 -7 0
-140 4 0
-140 6 0
-140 7 0
c p weight 141 -32 0
c p weight -141 0 0
141 -4 -6 -9 0
-141 4 0
-141 6 0
-141 9 0
c p weight 142 -96 0
c p weight -142 0 0
142 -4 -7 -8 0
-142 4 0
-142 7 0
-142 8 0
c p weight 143 -32 0
c p weight -143 0 0
143 -4 -7 -9 0
-143 4 0
-143 7 0
-143 9 0
c p weight 144 -32 0
c p weight -144 0 0
144 -4 -8 -9 0
-144 4 0
-144 8 0
-144 9 0
c p weight 145 -192 0
c p weight -145 0 0
145 -5 -6 -7 0
-145 5 0
-145 6 0
-145 7 0
c p weight 146 -192 0
c p weight -146 0 0
146 -5 -6 -8 0
-146 5 0
-146 6 0
-146 8 0
c p weight 147 -96 0
c p weight -147 0 0
147 -5 -6 -9 0
-147 5 0
-147 6 0
-147 9 0
c p weight 148 -32 0
c p weight -148 0 0
148 -5 -6 -10 0
-148 5 0
-148 6 0
-148 10 0
c p weight 149 -192 0
c p weight -149 0 0
149 -5 -7 -8 0
-149 5 0
-149 7 0
-149 8 0
c p weight 150 -32 0
c p weight -150 0 0
150 -5 -7 -10 0
-150 5 0
-150 7 0
-150 10 0
c p weight 151 -96 0
c p weight -151 0 0
151 -5 -8 -9 0
-151 5 0
-151 8 0
-151 9 0
c p weight 152 -32 0
c p weight -152 0 0
152 -5 -8 -10 0
-152 5 0
-152 8 0
-152 10 0
c p weight 153 -32 0
c p weight -153 0 0
153 -5 -9 -10 0
-153 5 0
-153 9 0
-153 10 0
c p weight 154 -192 0
c p weight -154 0 0
154 -6 -7 -8 0
-154 6 0
-154 7 0
-154 8 0
c p weight 155 -192 0
c p weight -155 0 0
155 -6 -7 -9 0
-155 6 0
-155 7 0
-155 9 0
c p weight 156 -96 0
c p weight -156 0 0
156 -6 -7 -10 0
-156 6 0
-156 7 0
-156 10 0
c p weight 157 -32 0
c p weight -157 0 0
157 -6 -7 -11 0
-157 6 0
-157 7 0
-157 11 0
c p weight 158 -192 0
c p weight -158 0 0
158 -6 -8 -9 0
-158 6 0
-158 8 0
-158 9 0
c p weight 159 -32 0
c p weight -159 0 0
159 -6 -8 -11 0
-159 6 0
-159 8 0
-159 11 0
c p weight 160 -96 0
c p weight -160 0 0
160 -6 -9 -10 0
-160 6 0
-160 9 0
-160 10 0
c p weight 161 -32 0
c p weight -161 0 0
161 -6 -9 -11 0
-161 6 0
-161 9 0
-161 11 0
c p weight 162 -32 0
c p weight -162 0 0
162 -6 -10 -11 0
-162 6 0
-162 10 0
-162 11 0
c p weight 163 -192 0
c p weight -163 0 0
163 -7 -8 -9 0
-163 7 0
-163 8 0
-163 9 0
c p weight 164 -192 0
c p weight -164 0 0
164 -7 -8 -10 0
-164 7 0
-164 8 0
-164 10 0
c p weight 165 -96 0
c p weight -165 0 0
165 -7 -8 -11 0
-165 7 0
-165 8 0
-165 11 0
c p weight 166 -32 0
c p weight -166 0 0
166 -7 -8 -12 0
-166 7 0
-166 8 0
-166 12 0
c p weight 167 -192 0
c p weight -167 0 0
167 -7 -9 -10 0
-167 7 0
-167 9 0
-167 10 0
c p weight 168 -32 0
c p weight -168 0 0
168 -7 -9 -12 0
-168 7 0
-168 9 0
-168 12 0
c p weight 169 -96 0
c p weight -169 0 0
169 -7 -10 -11 0
-169 7 0
-169 10 0
-169 11 0
c p weight 170 -32 0
c p weight -170 0 0
170 -7 -10 -12 0
-170 7 0
-170 10 0
-170 12 0
c p weight 171 -32 0
c p weight -171 0 0
171 -7 -11 -12 0
-171 7 0
-171 11 0
-171 12 0
c p weight 172 -192 0
c p weight -172 0 0
172 -8 -9 -10 0
-172 8 0
-172 9 0
-172 10 0
c p weight 173 -192 0
c p weight -173 0 0
173 -8 -9 -11 0
-173 8 0
-173 9 0
-173 11 0
c p weight 174 -96 0
c p weight -174 0 0
174 -8 -9 -12 0
-174 8 0
-174 9 0
-174 12 0
c p weight 175 -32 0
c p weight -175 0 0
175 -8 -9 -13 0
-175 8 0
-175 9 0
-175 13 0
c p weight 176 -192 0
c p weight -176 0 0
176 -8 -10 -11 0
-176 8 0
-176 10 0
-176 11 0
c p weight 177 -32 0
c p weight -177 0 0
177 -8 -10 -13 0
-177 8 0
-177 10 0
-177 13 0
c p weight 178 -96 0
c p weight -178 0 0
178 -8 -11 -12 0
-178 8 0
-178 11 0
-178 12 0
c p weight 179 -32 0
c p weight -179 0 0
179 -8 -11 -13 0
-179 8 0
-179 11 0
-179 13 0
c p weight 180 -32 0
c p weight -180 0 0
180 -8 -12 -13 0
-180 8 0
-180 12 0
-180 13 0
c p weight 181 -192 0
c p weight -181 0 0
181 -9 -10 -11 0
-181 9 0
-181 10 0
-181 11 0
c p weight 182 -192 0
c p weight -182 0 0
182 -9 -10 -12 0
-182 9 0
-182 10 0
-182 12 0
c p weight 183 -96 0
c p weight -183 0 0
183 -9 -10 -13 0
-183 9 0
-183 10 0
-183 13 0
c p weight 184 -32 0
c p weight -184 0 0
184 -9 -10 -14 0
-184 9 0
-184 10 0
-184 14 0
c p weight 185 -192 0
c p weight -185 0 0
185 -9 -11 -12 0
-185 9 0
-185 11 0
-185 12 0
c p weight 186 -32 0
c p weight -186 0 0
186 -9 -11 -14 0
-186 9 0
-186 11 0
-186 14 0
c p weight 187 -96 0
c p weight -187 0 0
187 -9 -12 -13 0
-187 9 0
-187 12 0
-187 13 0
c p weight 188 -32 0
c p weight -188 0 0
188 -9 -12 -14 0
-188 9 0
-188 12 0
-188 14 0
c p weight 189 -32 0
c p weight -189 0 0
189 -9 -13 -14 0
-189 9 0
-189 13 0
-189 14 0
c p weight 190 -192 0
c p weight -190 0 0
190 -10 -11 -12 0
-190 10 0
-190 11 0
-190 12 0
c p weight 191 -192 0
c p weight -191 0 0
191 -10 -11 -13 0
-191 10 0
-191 11 0
-191 13 0
c p weight 192 -96 0
c p weight -192 0 0
192 -10 -11 -14 0
-192 10 0
-192 11 0
-192 14 0
c p weight 193 -32 0
c p weight -193 0 0
193 -10 -11 -15 0
-193 10 0
-193 11 0
-193 15 0
c p weight 194 -192 0
c p weight -194 0 0
194 -10 -12 -13 0
-194 10 0
-194 12 0
-194 13 0
c p weight 195 -32 0
c p weight -195 0 0
195 -10 -12 -15 0
-195 10 0
-195 12 0
-195 15 0
c p weight 196 -96 0
c p weight -196 0 0
196 -10 -13 -14 0
-196 10 0
-196 13 0
-196 14 0
c p weight 197 -32 0
c p weight -197 0 0
197 -10 -13 -15 0
-197 10 0
-197 13 0
-197 15 0
c p weight 198 -32 0
c p weight -198 0 0
198 -10 -14 -15 0
-198 10 0
-198 14 0
-198 15 0
c p weight 199 -192 0
c p weight -199 0 0
199 -11 -12 -13 0
-199 11 0
-199 12 0
-199 13 0
c p weight 200 -192 0
c p weight -200 0 0
200 -11 -12 -14 0
-200 11 0
-200 12 0
-200 14 0
c p weight 201 -96 0
c p weight -201 0 0
201 -11 -12 -15 0
-201 11 0
-201 12 0
-201 15 0
c p weight 202 -32 0
c p weight -202 0 0
202 -11 -12 -16 0
-202 11 0
-202 12 0
-202 16 0
c p weight 203 -192 0
c p weight -203 0 0
203 -11 -13 -14 0
-203 11 0
-203 13 0
-203 14 0
c p weight 204 -32 0
c p weight -204 0 0
204 -11 -13 -16 0
-204 11 0
-204 13 0
-204 16 0
c p weight 205 -96 0
c p weight -205 0 0
205 -11 -14 -15 0
-205 11 0
-205 14 0
-205 15 0
c p weight 206 -32 0
c p weight -206 0 0
206 -11 -14 -16 0
-206 11 0
-206 14 0
-206 16 0
c p weight 207 -32 0
c p weight -207 0 0
207 -11 -15 -16 0
-207 11 0
-207 15 0
-207 16 0
c p weight 208 -192 0
c p weight -208 0 0
208 -12 -13 -14 0
-208 12 0
-208 13 0
-208 14 0
c p weight 209 -192 0
c p weight -209 0 0
209 -12 -13 -15 0
-209 12 0
-209 13 0
-209 15 0
c p weight 210 -96 0
c p weight -210 0 0
210 -12 -13 -16 0
-210 12 0
-210 13 0
-210 16 0
c p weight 211 -32 0
c p weight -211 0 0
211 -12 -13 -17 0
-211 12 0
-211 13 0
-211 17 0
c p weight 212 -192 0
c p weight -212 0 0
212 -12 -14 -15 0
-212 12 0
-212 14 0
-212 15 0
c p weight 213 -32 0
c p weight -213 0 0
213 -12 -14 -17 0
-213 12 0
-213 14 0
-213 17 0
c p weight 214 -96 0
c p weight -214 0 0
214 -12 -15 -16 0
-214 12 0
-214 15 0
-214 16 0
c p weight 215 -32 0
c p weight -215 0 0
215 -12 -15 -17 0
-215 12 0
-215 15 0
-215 17 0
c p weight 216 -32 0
c p weight -216 0 0
216 -12 -16 -17 0
-216 12 0
-216 16 0
-216 17 0
c p weight 217 -192 0
c p weight -217 0 0
217 -13 -14 -15 0
-217 13 0
-217 14 0
-217 15 0
c p weight 218 -192 0
c p weight -218 0 0
218 -13 -14 -16 0
-218 13 0
-218 14 0
-218 16 0
c p weight 219 -96 0
c p weight -219 0 0
219 -13 -14 -17 0
-219 13 0
-219 14 0
-219 17 0
c p weight 220 -32 0
c p weight -220 0 0
220 -13 -14 -18 0
-220 13 0
-220 14 0
-220 18 0
c p weight 221 -192 0
c p weight -221 0 0
221 -13 -15 -16 0
-221 13 0
-221 15 0
-221 16 0
c p weight 222 -32 0
c p weight -222 0 0
222 -13 -15 -18 0
-222 13 0
-222 15 0
-222 18 0
c p weight 223 -96 0
c p weight -223 0 0
223 -13 -16 -17 0
-223 13 0
-223 16 0
-223 17 0
c p weight 224 -32 0
c p weight -224 0 0
224 -13 -16 -18 0
-224 13 0
-224 16 0
-224 18 0
c p weight 225 -32 0
c p weight -225 0 0
225 -13 -17 -18 0
-225 13 0
-225 17 0
-225 18 0
c p weight 226 -192 0
c p weight -226 0 0
226 -14 -15 -16 0
-226 14 0
-226 15 0
-226 16 0
c p weight 227 -192 0
c p weight -227 0 0
227 -14 -15 -17 0
-227 14 0
-227 15 0
-227 17 0
c p weight 228 -96 0
c p weight -228 0 0
228 -14 -15 -18 0
-228 14 0
-228 15 0
-228 18 0
c p weight 229 -32 0
c p weight -229 0 0
229 -14 -15 -19 0
-229 14 0
-229 15 0
-229 19 0
c p weight 230 -192 0
c p weight -230 0 0
230 -14 -16 -17 0
-230 14 0
-230 16 0
-230 17 0
c p weight 231 -32 0
c p weight -231 0 0
231 -14 -16 -19 0
-231 14 0
-231 16 0
-231 19 0
c p weight 232 -96 0
c p weight -232 0 0
232 -14 -17 -18 0
-232 14 0
-232 17 0
-232 18 0
c p weight 233 -32 0
c p weight -233 0 0
233 -14 -17 -19 0
-233 14 0
-233 17 0
-233 19 0
c p weight 234 -32 0
c p weight -234 0 0
234 -14 -18 -19 0
-234 14 0
-234 18 0
-234 19 0
c p weight 235 -192 0
c p weight -235 0 0
235 -15 -16 -17 0
-235 15 0
-235 16 0
-235 17 0
c p weight 236 -192 0
c p weight -236 0 0
236 -15 -16 -18 0
-236 15 0
-236 16 0
-236 18 0
c p weight 237 -96 0
c p weight -237 0 0
237 -15 -16 -19 0
-237 15 0
-237 16 0
-237 19 0
c p weight 238 -32 0
c p weight -238 0 0
238 -15 -16 -20 0
-238 15 0
-238 16 0
-238 20 0
c p weight 239 -192 0
c p weight -239 0 0
239 -15 -17 -18 0
-239 15 0
-239 17 0
-239 18 0
c p weight 240 -32 0
c p weight -240 0 0
240 -15 -17 -20 0
-240 15 0
-240 17 0
-240 20 0
c p weight 241 -96 0
c p weight -241 0 0
241 -15 -18 -19 0
-241 15 0
-241 18 0
-241 19 0
c p weight 242 -32 0
c p weight -242 0 0
242 -15 -18 -20 0
-242 15 0
-242 18 0
-242 20 0
c p weight 243 -32 0
c p weight -243 0 0
243 -15 -19 -20 0
-243 15 0
-243 19 0
-243 20 0
c p weight 244 -192 0
c p weight -244 0 0
244 -16 -17 -18 0
-244 16 0
-244 17 0
-244 18 0
c p weight 245 -192 0
c p weight -245 0 0
245 -16 -17 -19 0
-245 16 0
-245 17 0
-245 19 0
c p weight 246 -96 0
c p weight -246 0 0
246 -16 -17 -20 0
-246 16 0
-246 17 0
-246 20 0
c p weight 247 -32 0
c p weight -247 0 0
247 -16 -17 -21 0
-247 16 0
-247 17 0
-247 21 0
c p weight 248 -192 0
c p weight -248 0 0
248 -16 -18 -19 0
-248 16 0
-248 18 0
-248 19 0
c p weight 249 -32 0
c p weight -249 0 0
249 -16 -18 -21 0
-249 16 0
-249 18 0
-249 21 0
c p weight 250 -96 0
c p weight -250 0 0
250 -16 -19 -20 0
-250 16 0
-250 19 0
-250 20 0
c p weight 251 -32 0
c p weight -251 0 0
251 -16 -19 -21 0
-251 16 0
-251 19 0
-251 21 0
c p weight 252 -32 0
c p weight -252 0 0
252 -16 -20 -21 0
-252 16 0
-252 20 0
-252 21 0
c p weight 253 -192 0
c p weight -253 0 0
253 -17 -18 -19 0
-253 17 0
-253 18 0
-253 19 0
c p weight 254 -192 0
c p weight -254 0 0
254 -17 -18 -20 0
-254 17 0
-254 18 0
-254 20 0
c p weight 255 -96 0
c p weight -255 0 0
255 -17 -18 -21 0
-255 17 0
-255 18 0
-255 21 0
c p weight 256 -32 0
c p weight -256 0 0
256 -17 -18 -22 0
-256 17 0
-256 18 0
-256 22 0
c p weight 257 -192 0
c p weight -257 0 0
257 -17 -19 -20 0
-257 17 0
-257 19 0
-257 20 0
c p weight 258 -32 0
c p weight -258 0 0
258 -17 -19 -22 0
-258 17 0
-258 19 0
-258 22 0
c p weight 259 -96 0
c p weight -259 0 0
259 -17 -20 -21 0
-259 17 0
-259 20 0
-259 21 0
c p weight 260 -32 0
c p weight -260 0 0
260 -17 -20 -22 0
-260 17 0
-260 20 0
-260 22 0
c p weight 261 -32 0
c p weight -261 0 0
261 -17 -21 -22 0
-261 17 0
-261 21 0
-261 22 0
c p weight 262 -192 0
c p weight -262 0 0
262 -18 -19 -20 0
-262 18 0
-262 19 0
-262 20 0
c p weight 263 -192 0
c p weight -263 0 0
263 -18 -19 -21 0
-263 18 0
-263 19 0
-263 21 0
c p weight 264 -96 0
c p weight -264 0 0
264 -18 -19 -22 0
-264 18 0
-264 19 0
-264 22 0
c p weight 265 -32 0
c p weight -265 0 0
265 -18 -19 -23 0
-265 18 0
-265 19 0
-265 23 0
c p weight 266 -192 0
c p weight -266 0 0
266 -18 -20 -21 0
-266 18 0
-266 20 0
-266 21 0
c p weight 267 -32 0
c p weight -267 0 0
267 -18 -20 -23 0
-267 18 0
-267 20 0
-267 23 0
c p weight 268 -96 0
c p weight -268 0 0
268 -18 -21 -22 0
-268 18 0
-268 21 0
-268 22 0
c p weight 269 -32 0
c p weight -269 0 0
269 -18 -21 -23 0
-269 18 0
-269 21 0
-269 23 0
c p weight 270 -32 0
c p weight -270 0 0
270 -18 -22 -23 0
-270 18 0
-270 22 0
-270 23 0
c p weight 271 -192 0
c p weight -271 0 0
271 -19 -20 -21 0
-271 19 0
-271 20 0
-271 21 0
c p weight 272 -192 0
c p weight -272 0 0
272 -19 -20 -22 0
-272 19 0
-272 20 0
-272 22 0
c p weight 273 -96 0
c p weight -273 0 0
273 -19 -20 -23 0
-273 19 0
-273 20 0
-273 23 0
c p weight 274 -32 0
c p weight -274 0 0
274 -19 -20 -24 0
-274 19 0
-274 20 0
-274 24 0
c p weight 275 -192 0
c p weight -275 0 0
275 -19 -21 -22 0
-275 19 0
-275 21 0
-275 22 0
c p weight 276 -32 0
c p weight -276 0 0
276 -19 -21 -24 0
-276 19 0
-276 21 0
-276 24 0
c p weight 277 -96 0
c p weight -277 0 0
277 -19 -22 -23 0
-277 19 0
-277 22 0
-277 23 0
c p weight 278 -32 0
c p weight -278 0 0
278 -19 -22 -24 0
-278 19 0
-278 22 0
-278 24 0
c p weight 279 -32 0
c p weight -279 0 0
279 -19 -23 -24 0
-279 19 0
-279 23 0
-279 24 0
c p weight 280 -192 0
c p weight -280 0 0
280 -20 -21 -22 0
-280 20 0
-280 21 0
-280 22 0
c p weight 281 -192 0
c p weight -281 0 0
281 -20 -21 -23 0
-281 20 0
-281 21 0
-281 23 0
c p weight 282 -96 0
c p weight -282 0 0
282 -20 -21 -24 0
-282 20 0
-282 21 0
-282 24 0
c p weight 283 -32 0
c p weight -283 0 0
283 -20 -21 -25 0
-283 20 0
-283 21 0
-283 25 0
c p weight 284 -192 0
c p weight -284 0 0
284 -20 -22 -23 0
-284 20 0
-284 22 0
-284 23 0
c p weight 285 -32 0
c p weight -285 0 0
285 -20 -22 -25 0
-285 20 0
-285 22 0
-285 25 0
c p weight 286 -96 0
c p weight -286 0 0
286 -20 -23 -24 0
-286 20 0
-286 23 0
-286 24 0
c p weight 287 -32 0
c p weight -287 0 0
287 -20 -23 -25 0
-287 20 0
-287 23 0
-287 25 0
c p weight 288 -32 0
c p weight -288 0 0
288 -20 -24 -25 0
-288 20 0
-288 24 0
-288 25 0
c p weight 289 -160 0
c p weight -289 0 0
289 -21 -22 -23 0
-289 21 0
-289 22 0
-289 23 0
c p weight 290 -128 0
c p weight -290 0 0
290 -21 -22 -24 0
-290 21 0
-290 22 0
-290 24 0
c p weight 291 -32 0
c p weight -291 0 0
291 -21 -22 -25 0
-291 21 0
-291 22 0
-291 25 0
c p weight 292 -128 0
c p weight -292 0 0
292 -21 -23 -24 0
-292 21 0
-292 23 0
-292 24 0
c p weight 293 -64 0
c p weight -293 0 0
293 -21 -24 -25 0
-293 21 0
-293 24 0
-293 25 0
c p weight 294 -96 0
c p weight -294 0 0
294 -22 -23 -24 0
-294 22 0
-294 23 0
-294 24 0
c p weight 295 -64 0
c p weight -295 0 0
295 -22 -23 -25 0
-295 22 0
-295 23 0
-295 25 0
c p weight 296 -64 0
c p weight -296 0 0
296 -22 -24 -25 0
-296 22 0
-296 24 0
-296 25 0
c p weight 297 -32 0
c p weight -297 0 0
297 -23 -24 -25 0
-297 23 0
-297 24 0
-297 25 0
c p weight 298 48 0
c p weight -298 0 0
298 -1 -2 0
-298 1 0
-298 2 0
c p weight 299 40 0
c p weight -299 0 0
299 -1 -3 0
-299 1 0
-299 3 0
c p weight 300 48 0
c p weight -300 0 0
300 -1 -4 0
-300 1 0
-300 4 0
c p weight 301 40 0
c p weight -301 0 0
301 -1 -5 0
-301 1 0
-301 5 0
c p weight 302 32 0
c p weight -302 0 0
302 -1 -6 0
-302 1 0
-302 6 0
c p weight 303 96 0
c p weight -303 0 0
303 -2 -3 0
-303 2 0
-303 3 0
c p weight 304 96 0
c p weight -304 0 0
304 -2 -4 0
-304 2 0
-304 4 0
c p weight 305 112 0
c p weight -305 0 0
305 -2 -5 0
-305 2 0
-305 5 0
c p weight 306 80 0
c p weight -306 0 0
306 -2 -6 0
-306 2 0
-306 6 0
c p weight 307 32 0
c p weight -307 0 0
307 -2 -7 0
-307 2 0
-307 7 0
c p weight 308 160 0
c p weight -308 0 0
308 -3 -4 0
-308 3 0
-308 4 0
c p weight 309 152 0
c p weight -309 0 0
309 -3 -5 0
-309 3 0
-309 5 0
c p weight 310 160 0
c p weight -310 0 0
310 -3 -6 0
-310 3 0
-310 6 0
c p weight 311 80 0
c p weight -311 0 0
311 -3 -7 0
-311 3 0
-311 7 0
c p weight 312 32 0
c p weight -312 0 0
312 -3 -8 0
-312 3 0
-312 8 0
c p weight 313 208 0
c p weight -313 0 0
313 -4 -5 0
-313 4 0
-313 5 0
c p weight 314 192 0
c p weight -314 0 0
314 -4 -6 0
-314 4 0
-314 6 0
c p weight 315 160 0
c p weight -315 0 0
315 -4 -7 0
-315 4 0
-315 7 0
c p weight 316 80 0
c p weight -316 0 0
316 -4 -8 0
-316 4 0
-316 8 0
c p weight 317 32 0
c p weight -317 0 0
317 -4 -9 0
-317 4 0
-317 9 0
c p weight 318 256 0
c p weight -318 0 0
318 -5 -6 0
-318 5 0
-318 6 0
c p weight 319 192 0
c p weight -319 0 0
319 -5 -7 0
-319 5 0
-319 7 0
c p weight 320 160 0
c p weight -320 0 0
320 -5 -8 0
-320 5 0
-320 8 0
c p weight 321 80 0
c p weight -321 0 0
321 -5 -9 0
-321 5 0
-321 9 0
c p weight 322 32 0
c p weight -322 0 0
322 -5 -10 0
-322 5 0
-322 10 0
c p weight 323 256 0
c p weight -323 0 0
323 -6 -7 0
-323 6 0
-323 7 0
c p weight 324 192 0
c p weight -324 0 0
324 -6 -8 0
-324 6 0
-324 8 0
c p weight 325 160 0
c p weight -325 0 0
325 -6 -9 0
-325 6 0
-325 9 0
c p weight 326 80 0
c p weight -326 0 0
326 -6 -10 0
-326 6 0
-326 10 0
c p weight 327 32 0
c p weight -327 0 0
327 -6 -11 0
-327 6 0
-327 11 0
c p weight 328 256 0
c p weight -328 0 0
328 -7 -8 0
-328 7 0
-328 8 0
c p weight 329 192 0
c p weight -329 0 0
329 -7 -9 0
-329 7 0
-329 9 0
c p weight 330 160 0
c p weight -330 0 0
330 -7 -10 0
-330 7 0
-330 10 0
c p weight 331 80 0
c p weight -331 0 0
331 -7 -11 0
-331 7 0
-331 11 0
c p weight 332 32 0
c p weight -332 0 0
332 -7 -12 0
-332 7 0
-332 12 0
c p weight 333 256 0
c p weight -333 0 0
333 -8 -9 0
-333 8 0
-333 9 0
c p weight 334 192 0
c p weight -334 0 0
334 -8 -10 0
-334 8 0
-334 10 0
c p weight 335 160 0
c p weight -335 0 0
335 -8 -11 0
-335 8 0
-335 11 0
c p weight 336 80 0
c p weight -336 0 0
336 -8 -12 0
-336 8 0
-336 12 0
c p weight 337 32 0
c p weight -337 0 0
337 -8 -13 0
-337 8 0
-337 13 0
c p weight 338 256 0
c p weight -338 0 0
338 -9 -10 0
-338 9 0
-338 10 0
c p weight 339 192 0
c p weight -339 0 0
339 -9 -11 0
-339 9 0
-339 11 0
c p weight 340 160 0
c p weight -340 0 0
340 -9 -12 0
-340 9 0
-340 12 0
c p weight 341 80 0
c p weight -341 0 0
341 -9 -13 0
-341 9 0
-341 13 0
c p weight 342 32 0
c p weight -342 0 0
342 -9 -14 0
-342 9 0
-342 14 0
c p weight 343 256 0
c p weight -343 0 0
343 -10 -11 0
-343 10 0
-343 11 0
c p weight 344 192 0
c p weight -344 0 0
344 -10 -12 0
-344 10 0
-344 12 0
c p weight 345 160 0
c p weight -345 0 0
345 -10 -13 0
-345 10 0
-345 13 0
c p weight 346 80 0
c p weight -346 0 0
346 -10 -14 0
-346 10 0
-346 14 0
c p weight 347 32 0
c p weight -347 0 0
347 -10 -15 0
-347 10 0
-347 15 0
c p weight 348 256 0
c p weight -348 0 0
348 -11 -12 0
-348 11 0
-348 12 0
c p weight 349 192 0
c p weight -349 0 0
349 -11 -13 0
-349 11 0
-349 13 0
c p weight 350 160 0
c p weight -350 0 0
350 -11 -14 0
-350 11 0
-350 14 0
c p weight 351 80 0
c p weight -351 0 0
351 -11 -15 0
-351 11 0
-351 15 0
c p weight 352 32 0
c p weight -352 0 0
352 -11 -16 0
-352 11 0
-352 16 0
c p weight 353 256 0
c p weight -353 0 0
353 -12 -13 0
-353 12 0
-353 13 0
c p weight 354 192 0
c p weight -354 0 0
354 -12 -14 0
-354 12 0
-354 14 0
c p weight 355 160 0
c p weight -355 0 0
355 -12 -15 0
-355 12 0
-355 15 0
c p weight 356 80 0
c p weight -356 0 0
356 -12 -16 0
-356 12 0
-356 16 0
c p weight 357 32 0
c p weight -357 0 0
357 -12 -17 0
-357 12 0
-357 17 0
c p weight 358 256 0
c p weight -358 0 0
358 -13 -14 0
-358 13 0
-358 14 0
c p weight 359 192 0
c p weight -359 0 0
359 -13 -15 0
-359 13 0
-359 15 0
c p weight 360 160 0
c p weight -360 0 0
360 -13 -16 0
-360 13 0
-360 16 0
c p weight 361 80 0
c p weight -361 0 0
361 -13 -17 0
-361 13 0
-361 17 0
c p weight 362 32 0
c p weight -362 0 0
362 -13 -18 0
-362 13 0
-362 18 0
c p weight 363 256 0
c p weight -363 0 0
363 -14 -15 0
-363 14 0
-363 15 0
c p weight 364 192 0
c p weight -364 0 0
364 -14 -16 0
-364 14 0
-364 16 0
c p weight 365 160 0
c p weight -365 0 0
365 -14 -17 0
-365 14 0
-365 17 0
c p weight 366 80 0
c p weight -366 0 0
366 -14 -18 0
-366 14 0
-366 18 0
c p weight 367 32 0
c p weight -367 0 0
367 -14 -19 0
-367 14 0
-367 19 0
c p weight 368 256 0
c p weight -368 0 0
368 -15 -16 0
-368 15 0
-368 16 0
c p weight 369 192 0
c p weight -369 0 0
369 -15 -17 0
-369 15 0
-369 17 0
c p weight 370 160 0
c p weight -370 0 0
370 -15 -18 0
-370 15 0
-370 18 0
c p weight 371 80 0
c p weight -371 0 0
371 -15 -19 0
-371 15 0
-371 19 0
c p weight 372 32 0
c p weight -372 0 0
372 -15 -20 0
-372 15 0
-372 20 0
c p weight 373 256 0
c p weight -373 0 0
373 -16 -17 0
-373 16 0
-373 17 0
c p weight 374 192 0
c p weight -374 0 0
374 -16 -18 0
-374 16 0
-374 18 0
c p weight 375 160 0
c p weight -375 0 0
375 -16 -19 0
-375 16 0
-375 19 0
c p weight 376 80 0
c p weight -376 0 0
376 -16 -20 0
-376 16 0
-376 20 0
c p weight 377 32 0
c p weight -377 0 0
377 -16 -21 0
-377 16 0
-377 21 0
c p weight 378 256 0
c p weight -378 0 0
378 -17 -18 0
-378 17 0
-378 18 0
c p weight 379 192 0
c p weight -379 0 0
379 -17 -19 0
-379 17 0
-379 19 0
c p weight 380 160 0
c p weight -380 0 0
380 -17 -20 0
-380 17 0
-380 20 0
c p weight 381 80 0
c p weight -381 0 0
381 -17 -21 0
-381 17 0
-381 21 0
c p weight 382 32 0
c p weight -382 0 0
382 -17 -22 0
-382 17 0
-382 22 0
c p weight 383 256 0
c p weight -383 0 0
383 -18 -19 0
-383 18 0
-383 19 0
c p weight 384 192 0
c p weight -384 0 0
384 -18 -20 0
-384 18 0
-384 20 0
c p weight 385 160 0
c p weight -385 0 0
385 -18 -21 0
-385 18 0
-385 21 0
c p weight 386 80 0
c p weight -386 0 0
386 -18 -22 0
-386 18 0
-386 22 0
c p weight 387 32 0
c p weight -387 0 0
387 -18 -23 0
-387 18 0
-387 23 0
c p weight 388 256 0
c p weight -388 0 0
388 -19 -20 0
-388 19 0
-388 20 0
c p weight 389 192 0
c p weight -389 0 0
389 -19 -21 0
-389 19 0
-389 21 0
c p weight 390 160 0
c p weight -390 0 0
390 -19 -22 0
-390 19 0
-390 22 0
c p weight 391 80 0
c p weight -391 0 0
391 -19 -23 0
-391 19 0
-391 23 0
c p weight 392 32 0
c p weight -392 0 0
392 -19 -24 0
-392 19 0
-392 24 0
c p weight 393 256 0
c p weight -393 0 0
393 -20 -21 0
-393 20 0
-393 21 0
c p weight 394 192 0
c p weight -394 0 0
394 -20 -22 0
-394 20 0
-394 22 0
c p weight 395 160 0
c p weight -395 0 0
395 -20 -23 0
-395 20 0
-395 23 0
c p weight 396 80 0
c p weight -396 0 0
396 -20 -24 0
-396 20 0
-396 24 0
c p weight 397 32 0
c p weight -397 0 0
397 -20 -25 0
-397 20 0
-397 25 0
c p weight 398 208 0
c p weight -398 0 0
398 -21 -22 0
-398 21 0
-398 22 0
c p weight 399 152 0
c p weight -399 0 0
399 -21 -23 0
-399 21 0
-399 23 0
c p weight 400 112 0
c p weight -400 0 0
400 -21 -24 0
-400 21 0
-400 24 0
c p weight 401 40 0
c p weight -401 0 0
401 -21 -25 0
-401 21 0
-401 25 0
c p weight 402 160 0
c p weight -402 0 0
402 -22 -23 0
-402 22 0
-402 23 0
c p weight 403 96 0
c p weight -403 0 0
403 -22 -24 0
-403 22 0
-403 24 0
c p weight 404 48 0
c p weight -404 0 0
404 -22 -25 0
-404 22 0
-404 25 0
c p weight 405 96 0
c p weight -405 0 0
405 -23 -24 0
-405 23 0
-405 24 0
c p weight 406 40 0
c p weight -406 0 0
406 -23 -25 0
-406 23 0
-406 25 0
c p weight 407 48 0
c p weight -407 0 0
407 -24 -25 0
-407 24 0
-407 25 0
c p weight 408 -40 0
c p weight -408 0 0
408 -1 0
-408 1 0
c p weight 409 -88 0
c p weight -409 0 0
409 -2 0
-409 2 0
c p weight 410 -136 0
c p weight -410 0 0
410 -3 0
-410 3 0
c p weight 411 -184 0
c p weight -411 0 0
411 -4 0
-411 4 0
c p weight 412 -232 0
c p weight -412 0 0
412 -5 0
-412 5 0
c p weight 413 -272 0
c p weight -413 0 0
413 -6 0
-413 6 0
c p weight 414 -272 0
c p weight -414 0 0
414 -7 0
-414 7 0
c p weight 415 -272 0
c p weight -415 0 0
415 -8 0
-415 8 0
c p weight 416 -272 0
c p weight -416 0 0
416 -9 0
-416 9 0
c p weight 417 -272 0
c p weight -417 0 0
417 -10 0
-417 10 0
c p weight 418 -272 0
c p weight -418 0 0
418 -11 0
-418 11 0
c p weight 419 -272 0
c p weight -419 0 0
419 -12 0
-419 12 0
c p weight 420 -272 0
c p weight -420 0 0
420 -13 0
-420 13 0
c p weight 421 -272 0
c p weight -421 0 0
421 -14 0
-421 14 0
c p weight 422 -272 0
c p weight -422 0 0
422 -15 0
-422 15 0
c p weight 423 -272 0
c p weight -423 0 0
423 -16 0
-423 16 0
c p weight 424 -272 0
c p weight -424 0 0
424 -17 0
-424 17 0
c p weight 425 -272 0
c p weight -425 0 0
425 -18 0
-425 18 0
c p weight 426 -272 0
c p weight -426 0 0
426 -19 0
-426 19 0
c p weight 427 -272 0
c p weight -427 0 0
427 -20 0
-427 20 0
c p weight 428 -232 0
c p weight -428 0 0
428 -21 0
-428 21 0
c p weight 429 -184 0
c p weight -429 0 0
429 -22 0
-429 22 0
c p weight 430 -136 0
c p weight -430 0 0
430 -23 0
-430 23 0
c p weight 431 -88 0
c p weight -431 0 0
431 -24 0
-431 24 0
c p weight 432 -40 0
c p weight -432 0 0
432 -25 0
-432 25 0
